sat
(:max-memory          18.24
 :memory              17.68
 :num-allocs          5238821
 :rlimit-count        49860
 :sls-constraints     448
 :sls-ddfw-flips      5955.00
 :sls-ddfw-restarts   1
 :sls-ddfw-shifts     3845.00
 :sls-euf-conflict    448
 :solve-eqs-elim-vars 4
 :solve-eqs-steps     8
 :time                0.02
 :total-time          0.02)
